(set-info :smt-lib-version 2.6)
(set-logic QF_UFLRA)
(set-info :source |
MathSat group

|)
(set-info :category "random")
(set-info :status unsat)
(declare-fun x0 () Real)
(declare-fun x1 () Real)
(declare-fun x2 () Real)
(declare-fun x3 () Real)
(declare-fun x4 () Real)
(declare-fun x5 () Real)
(declare-fun x6 () Real)
(declare-fun x7 () Real)
(declare-fun x8 () Real)
(declare-fun x9 () Real)
(declare-fun x10 () Real)
(declare-fun x11 () Real)
(declare-fun x12 () Real)
(declare-fun x13 () Real)
(declare-fun x14 () Real)
(declare-fun x15 () Real)
(declare-fun x16 () Real)
(declare-fun x17 () Real)
(declare-fun x18 () Real)
(declare-fun x19 () Real)
(declare-fun x20 () Real)
(declare-fun x21 () Real)
(declare-fun x22 () Real)
(declare-fun x23 () Real)
(declare-fun x24 () Real)
(declare-fun x25 () Real)
(declare-fun x26 () Real)
(declare-fun x27 () Real)
(declare-fun x28 () Real)
(declare-fun x29 () Real)
(declare-fun x30 () Real)
(declare-fun x31 () Real)
(declare-fun x32 () Real)
(declare-fun x33 () Real)
(declare-fun x34 () Real)
(declare-fun x35 () Real)
(declare-fun x36 () Real)
(declare-fun x37 () Real)
(declare-fun x38 () Real)
(declare-fun x39 () Real)
(declare-fun x40 () Real)
(declare-fun x41 () Real)
(declare-fun x42 () Real)
(declare-fun x43 () Real)
(declare-fun x44 () Real)
(declare-fun x45 () Real)
(declare-fun x46 () Real)
(declare-fun x47 () Real)
(declare-fun x48 () Real)
(declare-fun x49 () Real)
(declare-fun f0_1 (Real) Real)
(declare-fun f0_2 (Real Real) Real)
(declare-fun f0_3 (Real Real Real) Real)
(declare-fun f0_4 (Real Real Real Real) Real)
(declare-fun P0 () Bool)
(declare-fun P1 () Bool)
(declare-fun P2 () Bool)
(declare-fun P3 () Bool)
(declare-fun P4 () Bool)
(declare-fun P5 () Bool)
(declare-fun P6 () Bool)
(declare-fun P7 () Bool)
(declare-fun P8 () Bool)
(declare-fun P9 () Bool)
(declare-fun P10 () Bool)
(declare-fun P11 () Bool)
(declare-fun P12 () Bool)
(declare-fun P13 () Bool)
(declare-fun P14 () Bool)
(declare-fun P15 () Bool)
(declare-fun P16 () Bool)
(declare-fun P17 () Bool)
(declare-fun P18 () Bool)
(declare-fun P19 () Bool)
(declare-fun P20 () Bool)
(declare-fun P21 () Bool)
(declare-fun P22 () Bool)
(declare-fun P23 () Bool)
(declare-fun P24 () Bool)
(declare-fun P25 () Bool)
(declare-fun P26 () Bool)
(declare-fun P27 () Bool)
(declare-fun P28 () Bool)
(declare-fun P29 () Bool)
(declare-fun P30 () Bool)
(declare-fun P31 () Bool)
(declare-fun P32 () Bool)
(declare-fun P33 () Bool)
(declare-fun P34 () Bool)
(declare-fun P35 () Bool)
(declare-fun P36 () Bool)
(declare-fun P37 () Bool)
(declare-fun P38 () Bool)
(declare-fun P39 () Bool)
(declare-fun P40 () Bool)
(declare-fun P41 () Bool)
(declare-fun P42 () Bool)
(declare-fun P43 () Bool)
(declare-fun P44 () Bool)
(declare-fun P45 () Bool)
(declare-fun P46 () Bool)
(declare-fun P47 () Bool)
(declare-fun P48 () Bool)
(declare-fun P49 () Bool)
(assert (let ((?v_13 (<= (- (- (* 25 x33) (* 15 x2)) (* 20 x2)) 27)) (?v_48 (* 20 x13)) (?v_88 (* 18 x4)) (?v_25 (distinct (+ (- (* 11 x31) (* 13 x43)) (* 22 x36)) 7)) (?v_59 (* 18 x7)) (?v_18 (<= (- (- (* 23 x19) (* 12 x9)) (* 7 x14)) 6)) (?v_137 (< (+ (- (* 14 x29) (* 5 x3)) (* 9 x12)) 17)) (?v_5 (* 3 x4))) (let ((?v_98 (<= (+ (- ?v_5 (* 9 x42)) (* 11 x17)) 22)) (?v_163 (<= (+ (- (* 8 x15) (* 3 x15)) (* 20 x38)) 0)) (?v_100 (< (- (- (* 2 x6) (* 10 x6)) (* 21 x23)) 24)) (?v_28 (distinct (f0_2 x23 x41) (f0_2 x41 x33))) (?v_80 (= (f0_1 x13) (f0_2 x14 x32))) (?v_132 (f0_1 x40))) (let ((?v_167 (distinct ?v_132 (f0_1 x41))) (?v_78 (= (f0_1 x8) (f0_2 x31 x25))) (?v_155 (distinct x42 (f0_1 x35))) (?v_39 (distinct x12 (f0_2 x41 x2))) (?v_9 (f0_1 x25))) (let ((?v_85 (= (f0_1 x0) ?v_9)) (?v_22 (= x30 (f0_1 x38))) (?v_160 (distinct (f0_2 x9 x44) (f0_1 x9))) (?v_66 (= x24 (f0_1 x31))) (?v_221 (distinct x0 (f0_1 x6))) (?v_20 (= x13 (f0_2 x46 x0))) (?v_233 (= x36 (f0_1 x4))) (?v_192 (distinct (f0_2 x31 x11) x10)) (?v_61 (= x40 x12)) (?v_175 (= x44 ?v_132)) (?v_211 (= (f0_1 x12) x33)) (?v_120 (f0_1 x23))) (let ((?v_161 (= ?v_120 x8)) (?v_56 (f0_1 x30))) (let ((?v_0 (= (f0_1 x18) ?v_56)) (?v_196 (distinct (f0_1 x20) x8)) (?v_34 (f0_1 x19))) (let ((?v_74 (= x27 ?v_34)) (?v_180 (distinct (f0_1 x29) (f0_2 x11 x16))) (?v_154 (distinct (f0_2 x27 x42) (f0_2 x1 x49))) (?v_90 (= (f0_2 x2 x3) (f0_2 x1 x33))) (?v_17 (distinct (f0_2 x47 x3) (f0_1 x33))) (?v_144 (= x0 (f0_2 x6 x11))) (?v_179 (distinct ?v_120 ?v_34)) (?v_162 (= (f0_2 x8 x18) (f0_1 x21))) (?v_213 (= x34 x10)) (?v_43 (f0_1 x45))) (let ((?v_126 (= ?v_43 x31)) (?v_71 (distinct x37 (f0_2 x14 x34))) (?v_93 (distinct (f0_1 x47) ?v_43)) (?v_168 (distinct (f0_1 x14) (f0_1 x34))) (?v_102 (distinct x2 (f0_1 x43))) (?v_6 (distinct x25 (f0_2 x9 x30))) (?v_76 (distinct (f0_2 x44 x11) (f0_2 x26 x19))) (?v_77 (distinct (f0_2 x22 x31) x2)) (?v_116 (distinct (f0_2 x1 x28) (f0_2 x41 x1))) (?v_96 (distinct (f0_1 x5) (f0_2 x25 x12))) (?v_119 (= (f0_2 x23 x7) x16)) (?v_10 (= (f0_2 x31 x34) x39)) (?v_1 (distinct (f0_1 x28) (f0_2 x36 x30))) (?v_99 (distinct ?v_9 x5)) (?v_153 (= (f0_1 x2) x4)) (?v_138 (distinct (f0_2 x38 x15) (f0_2 x46 x45))) (?v_186 (distinct (f0_1 x32) ?v_56)) (?v_68 (distinct (f0_2 x46 x12) x29)) (?v_194 (distinct x48 (f0_1 x48))) (?v_47 (distinct (f0_2 x10 x45) (f0_1 x49))) (?v_36 (distinct x19 (f0_1 x24))) (?v_14 (not ?v_144)) (?v_255 (not ?v_154)) (?v_136 (not ?v_90)) (?v_166 (not P8)) (?v_19 (not P4))) (let ((?v_157 (not ?v_1)) (?v_2 (not ?v_68)) (?v_37 (not ?v_10)) (?v_67 (not P16)) (?v_55 (not ?v_100)) (?v_29 (not P30)) (?v_4 (not P7)) (?v_228 (not ?v_76)) (?v_46 (not ?v_196)) (?v_108 (not ?v_13)) (?v_106 (not P11)) (?v_112 (not P48)) (?v_145 (not P26)) (?v_82 (not ?v_25)) (?v_62 (not P19)) (?v_70 (not ?v_98)) (?v_236 (not P28)) (?v_84 (not ?v_85)) (?v_44 (not P15)) (?v_226 (not ?v_99)) (?v_69 (not ?v_17)) (?v_111 (not ?v_0)) (?v_252 (not ?v_221)) (?v_174 (not P42)) (?v_134 (not P21)) (?v_191 (not ?v_6)) (?v_258 (or P7 P18)) (?v_150 (not P9)) (?v_54 (not P33)) (?v_81 (not ?v_194)) (?v_165 (not ?v_18)) (?v_188 (not P18)) (?v_75 (not ?v_74)) (?v_63 (not ?v_20)) (?v_115 (not P49)) (?v_164 (not ?v_28)) (?v_141 (not ?v_192)) (?v_49 (not ?v_179)) (?v_151 (not ?v_39)) (?v_259 (not P5)) (?v_64 (not P37)) (?v_51 (not P40)) (?v_117 (not ?v_61)) (?v_176 (not P46)) (?v_216 (not ?v_162)) (?v_53 (not P17)) (?v_240 (not ?v_47)) (?v_118 (not P22)) (?v_72 (not ?v_186)) (?v_212 (not P6)) (?v_187 (not P1)) (?v_215 (not P13)) (?v_208 (not ?v_168)) (?v_87 (not P23)) (?v_92 (not ?v_180)) (?v_223 (not ?v_233)) (?v_113 (not ?v_155)) (?v_79 (not ?v_163)) (?v_181 (not P14)) (?v_122 (not ?v_77)) (?v_105 (not P3)) (?v_86 (not P43)) (?v_97 (not P41)) (?v_140 (not ?v_175)) (?v_185 (not P32)) (?v_123 (not ?v_80)) (?v_95 (not ?v_71)) (?v_130 (not P38)) (?v_135 (not ?v_93)) (?v_183 (not P36)) (?v_128 (not P25)) (?v_149 (not P10)) (?v_237 (not ?v_96)) (?v_251 (or ?v_99 ?v_47)) (?v_243 (not ?v_36)) (?v_127 (not P47)) (?v_124 (not ?v_161)) (?v_159 (not P20)) (?v_204 (not ?v_66)) (?v_156 (not ?v_126)) (?v_222 (not P12)) (?v_152 (not ?v_119)) (?v_201 (not ?v_116)) (?v_178 (not ?v_22)) (?v_147 (not P27)) (?v_148 (not P45)) (?v_173 (not P34)) (?v_158 (not ?v_138)) (?v_190 (not ?v_153)) (?v_209 (not P44)) (?v_203 (not ?v_78)) (?v_250 (not P24)) (?v_229 (not ?v_167)) (?v_224 (not ?v_102)) (?v_241 (not P2)) (?v_207 (or ?v_155 ?v_180)) (?v_218 (not ?v_137))) (let ((?v_198 (or P31 ?v_151)) (?v_235 (not ?v_160)) (?v_249 (not ?v_211)) (?v_245 (not P31)) (?v_234 (not ?v_213)) (?v_242 (not P39)) (?v_31 (= (- (* 10 x1) (* 21 x36)) 20))) (let ((?v_27 (not ?v_31)) (?v_32 (distinct (+ (* 22 x9) (* 13 x25) (* 5 x43)) 21))) (let ((?v_33 (not ?v_32)) (?v_41 (<= (- (* 16 x4) (* 9 x43)) 2))) (let ((?v_114 (not ?v_41)) (?v_125 (< (+ (* 17 x37) (* 15 x5) (* 11 x26)) 25)) (?v_219 (= (+ (* 2 x10) (* 22 x26) (* 17 x45)) 2))) (let ((?v_89 (not ?v_219)) (?v_199 (< (+ (- 0 (* 17 x39)) (* 23 x9)) 7))) (let ((?v_220 (not ?v_199)) (?v_103 (<= (- (- x46 (* 2 x49)) (* 26 x43)) 25))) (let ((?v_197 (not ?v_103)) (?v_143 (not ?v_125)) (?v_91 (< (+ (* (- 7) x6) (* 26 x37) (* 16 x13)) 20)) (?v_3 (<= (+ (* 7 x10) (* 17 x49) (* 5 x7)) (- 12))) (?v_65 (<= (+ (- (* (- 10) x12) x17) (* 14 x23)) 4)) (?v_169 (< (+ (* (- 7) x0) (* 21 x19) ?v_5) 27))) (let ((?v_121 (not ?v_169))) (let ((?v_260 (or ?v_121 ?v_1)) (?v_170 (< (- (- x4 (* 27 x8)) (* 11 x20)) (- 14))) (?v_26 (<= (- (+ (* (- 15) x29) (* 6 x8)) (* 22 x17)) (- 24)))) (let ((?v_50 (not ?v_26)) (?v_107 (<= (- (+ (* (- 26) x9) (* 10 x28)) 0) 2)) (?v_15 (distinct (- (+ (* 6 x19) (* 15 x9)) (* 23 x43)) (- 16)))) (let ((?v_42 (not ?v_15)) (?v_11 (<= (- (- (* 26 x20) (* 7 x30)) 0) (- 20))) (?v_101 (< (- (- (* 19 x8) ?v_59) (* 16 x10)) (- 4)))) (let ((?v_184 (not ?v_101)) (?v_193 (< (+ (* (- 25) x36) (* 11 x4) (* 2 x27)) (- 22)))) (let ((?v_16 (not ?v_193)) (?v_7 (<= (+ (* (- 5) x23) (* 26 x28) (* 24 x23)) (- 21)))) (let ((?v_23 (not ?v_7)) (?v_24 (<= (- ?v_48 (* 4 x21)) (- 19))) (?v_57 (distinct (+ (* 21 x15) (* 3 x35) (* 4 x19)) (- 5))) (?v_8 (<= (- (+ (* (- 20) x14) (* 23 x13)) (* 7 x45)) 19)) (?v_12 (not ?v_11)) (?v_231 (= (- (- (* (- 5) x38) (* 11 x21)) (* 21 x47)) (- 25))) (?v_38 (< (- (+ (* (- 6) x21) (* 8 x3)) (* 4 x11)) (- 11)))) (let ((?v_21 (not ?v_38)) (?v_94 (= (+ (* (- 15) x7) (* 20 x21) (* 23 x32)) 28)) (?v_30 (< (- (- (* (- 8) x38) (* 27 x40)) (* 14 x30)) (- 15))) (?v_60 (< (* 2 x42) (- 24))) (?v_83 (< (+ (- 0 ?v_88) (* 11 x43)) (- 18))) (?v_40 (< (+ (- (* (- 17) x3) (* 22 x35)) (* 12 x4)) 3)) (?v_35 (= (+ (* (- 10) x13) (* 3 x5)) 6))) (let ((?v_52 (not ?v_35)) (?v_133 (not ?v_30)) (?v_45 (<= (- (- (* (- 12) x33) x6) (* 14 x9)) (- 8)))) (let ((?v_73 (not ?v_45)) (?v_182 (not ?v_8)) (?v_210 (= (- (- (* (- 2) x8) (* 9 x10)) (* 12 x8)) 20)) (?v_195 (< (- (- 0 (* 27 x6)) ?v_48) (- 23)))) (let ((?v_189 (not ?v_195)) (?v_58 (not ?v_57)) (?v_254 (<= (- (- (* (- 1) x24) 0) (* 2 x32)) (- 16)))) (let ((?v_172 (not ?v_254)) (?v_129 (<= (- (- (* 17 x29) ?v_59) (* 3 x49)) (- 24))) (?v_109 (not ?v_24)) (?v_131 (<= (+ (* (- 1) x7) (* 12 x22)) 18)) (?v_110 (distinct (- (+ ?v_88 (* 17 x13)) (* 19 x18)) (- 13)))) (let ((?v_248 (not ?v_110)) (?v_104 (distinct (- (+ (* 6 x10) (* 19 x42)) (* 16 x31)) (- 23)))) (let ((?v_214 (not ?v_104)) (?v_142 (not ?v_83)) (?v_200 (<= (- (- (* (- 7) x30) (* 8 x31)) (* 3 x30)) 10)) (?v_206 (not ?v_65)) (?v_146 (not ?v_129)) (?v_227 (not ?v_131)) (?v_139 (< (+ (* (- 25) x33) (* 10 x43) (* 14 x8)) (- 12))) (?v_246 (distinct (- (- (* (- 9) x25) (* 5 x27)) (* 5 x23)) (- 19)))) (let ((?v_177 (not ?v_246)) (?v_205 (not ?v_139)) (?v_253 (<= (+ (- (* (- 17) x25) (* 23 x4)) (* 18 x38)) 8))) (let ((?v_171 (not ?v_253)) (?v_244 (not ?v_94)) (?v_225 (not ?v_170)) (?v_217 (not ?v_107)) (?v_202 (not ?v_200)) (?v_239 (<= (- (- (* (- 25) x0) (* 5 x21)) (* 10 x40)) (- 4))) (?v_230 (not ?v_40)) (?v_257 (not ?v_91)) (?v_232 (not ?v_210)) (?v_247 (or ?v_111 ?v_21)) (?v_238 (not ?v_3)) (?v_256 (or ?v_109 P38))) (let ((?v_261 (not ?v_239))) (and (and (and (and (and (and (and (and (and (and (and (and (and (and (and (and (and (and (and (and (and (and (and (and (and (and (and (and (and (and (and (and (and (and (and (and (and (and (and (and (and (and (and (and (and (and (and (and (and (and (and (and (and (and (and (and (and (and (and (and (and (and (and (and (and (and (and (and (and (and (and (and (and (and (and (and (and (and (and (and (and (and (and (and (and (and (and (and (and (and (and (and (and (and (and (and (and (and (and (and (and (and (and (and (and (and (and (and (and (and (and (and (and (and (and (and (and (and (and (and (and (and (and (and (and (and (and (and (and (and (and (and (and (and (and (and (and (and (and (and (and (and (and (and (and (and (and (and (and (and (and (and (and (and (and (and (and (and (and (and (and (and (and (and (and (and (and (and (and (and (and (and (and (and (and (and (and (and (and (and (and (and (and (and (and (and (and (and (and (and (and (and (and (and (and (and (and (and (and (and (and (and (and (and (and (and (and (and (and (and (and (and (and (and (and (and (and (and (and (and (and (and (and (and (and (and (and (and (and (and (and (and (and (and (and (and (and (and (and (and (and (and (and (and (and (and (and (and (and (and (and (and (and (and (and (and (and (and (and (and (and (and (and (and (and (and (and (and (and (and (and (and (and (and (and (and (and (and (and (and (and (and (and (and (and (and (and (and (and (and (and (and (and (and (and (and (and (and (and (and (and (and (and (and (and (and (and (and (and (and (and (and (and (and (and (and (and (and (and (and (and (and (and (and (and (and (and (and (and (and (and (and (and (and (and (and (and (and (and (and (and (and (and (and (and (and (and (and (and (and (and (and (and (and (and (and (and (and (and (and (and (and (and (and (and (and (and (and (and (and (and (and (and (and (and (and (and (and (and (and (and (and (and (and (and (and (and (and (and (and (and (and (and (and (and (and (and (and (and (and (and (and (and (and (and (and (and (and (and (and (and (and (and (and (and (and (and (and (and (and (and (and (and (and (and (and (and (and (and (and (and (and (and (and (and (and (and (and (and (and (and (and (and (and (and (and (and (and (and (and (and (and (and (and (and (and (and (and (and (and (and (and (and (and (and (and (and (and (and (and (and (and (and (and (and (and (and (and (and (and (and (and (and (and (and (and (and (and (and (and (and (and (and (and (and (and (and (and (and (and (and (and (and (and (and (and (and (and (and (and (and (and (and (and (and (and (and (and (and (and (and (and (and (and (and (and (and (and (and (and (and (and (and (and (and (and (and (and (and (and (and (and (and (and (and (and (and (and (and (and (and (and (and (and (and (and (and (and (and (and (and (and (and (and (and (and (and (and (and (and (and (and (and (and (and (and (and (and (and (and (and (and (and (and (and (and (and (and (and (and (and (and (and (and (and (and (and (and (and (or (or ?v_6 P11) ?v_14) (or (or ?v_255 ?v_136) P23)) (or (or ?v_166 P9) ?v_91)) (or (or ?v_3 ?v_19) ?v_157)) (or (or ?v_137 ?v_2) ?v_37)) (or (or ?v_0 ?v_67) ?v_27)) (or (or ?v_55 ?v_65) P26)) (or (or P22 ?v_0) P7)) (or ?v_260 P19)) (or (or ?v_29 P36) P49)) (or (or ?v_170 P16) ?v_50)) (or (or ?v_107 ?v_2) ?v_4)) (or (or P3 ?v_228) ?v_42)) (or (or ?v_11 ?v_3) ?v_46)) (or (or ?v_108 ?v_106) ?v_4)) (or (or ?v_112 ?v_145) ?v_184)) (or (or ?v_82 ?v_62) ?v_116)) (or (or ?v_16 ?v_23) ?v_2)) (or (or P33 ?v_70) ?v_24)) (or (or ?v_57 ?v_8) P0)) (or (or ?v_236 ?v_6) ?v_84)) (or (or ?v_44 ?v_7) ?v_8)) (or (or P12 ?v_20) ?v_226)) (or (or P11 ?v_69) ?v_211)) (or (or P46 ?v_10) ?v_12)) (or (or ?v_111 P11) ?v_231)) (or (or P26 ?v_12) ?v_13)) (or (or ?v_252 ?v_22) ?v_96)) (or (or ?v_21 ?v_174) ?v_134)) (or (or ?v_14 ?v_191) P28)) (or ?v_258 ?v_15)) (or (or ?v_94 ?v_150) ?v_66)) (or (or ?v_16 ?v_80) ?v_33)) (or (or ?v_54 ?v_30) ?v_81)) (or (or ?v_165 ?v_188) ?v_17)) (or (or ?v_18 ?v_75) ?v_19)) (or (or ?v_63 ?v_115) ?v_126)) (or (or ?v_21 ?v_22) ?v_23)) (or (or P31 ?v_24) P44)) (or (or ?v_36 ?v_60) ?v_25)) (or (or ?v_83 ?v_40) ?v_164)) (or (or ?v_52 ?v_78) ?v_26)) (or (or P49 ?v_27) ?v_28)) (or (or ?v_29 ?v_133) ?v_73)) (or (or ?v_31 ?v_141) ?v_32)) (or (or ?v_33 P47) ?v_182)) (or (or P42 ?v_21) ?v_49)) (or (or ?v_151 P13) P49)) (or (or ?v_259 ?v_0) ?v_35)) (or (or ?v_36 ?v_37) ?v_38)) (or (or (not P35) ?v_39) ?v_40)) (or (or ?v_64 P31) P13)) (or (or ?v_210 ?v_41) ?v_51)) (or (or ?v_160 ?v_114) ?v_117)) (or (or ?v_19 ?v_19) ?v_71)) (or (or P15 ?v_42) ?v_47)) (or (or ?v_36 ?v_30) P10)) (or (or P45 ?v_93) ?v_176)) (or (or ?v_216 ?v_53) ?v_44)) (or (or ?v_45 P22) ?v_46)) (or (or ?v_240 ?v_37) ?v_189)) (or (or ?v_118 P33) P3)) (or (or ?v_49 ?v_50) ?v_51)) (or (or ?v_52 ?v_53) ?v_54)) (or (or ?v_55 P18) P46)) (or (or ?v_72 ?v_212) ?v_58)) (or (or ?v_172 P43) ?v_58)) (or (or ?v_187 ?v_129) ?v_215)) (or (or ?v_60 ?v_208) ?v_77)) (or (or ?v_87 ?v_92) ?v_61)) (or (or ?v_62 ?v_8) ?v_63)) (or (or ?v_13 ?v_64) ?v_65)) (or (or ?v_6 ?v_40) P28)) (or (or ?v_223 ?v_66) P36)) (or (or P15 ?v_109) ?v_67)) (or (or ?v_46 ?v_68) ?v_113)) (or (or ?v_29 P8) ?v_125)) (or (or P13 ?v_69) ?v_67)) (or (or ?v_79 ?v_54) ?v_66)) (or (or P20 ?v_181) P28)) (or (or ?v_70 P15) ?v_71)) (or (or ?v_72 ?v_70) ?v_26)) (or (or ?v_73 ?v_74) P7)) (or (or P19 ?v_131) ?v_42)) (or (or ?v_75 P7) ?v_76)) (or (or ?v_122 ?v_105) ?v_102)) (or (or ?v_57 P6) ?v_86)) (or (or ?v_78 P19) ?v_0)) (or (or ?v_18 ?v_97) ?v_140)) (or (or ?v_23 ?v_49) ?v_47)) (or (or ?v_185 ?v_75) ?v_79)) (or (or ?v_123 P15) P30)) (or (or (not P29) ?v_119) ?v_73)) (or (or ?v_81 ?v_69) ?v_89)) (or (or ?v_82 ?v_95) ?v_60)) (or (or P0 ?v_83) P41)) (or (or ?v_84 ?v_85) P18)) (or (or ?v_80 ?v_83) ?v_76)) (or (or ?v_86 ?v_130) ?v_87)) (or (or ?v_35 ?v_63) ?v_248)) (or (or P23 P33) ?v_86)) (or (or P4 P12) ?v_220)) (or (or ?v_89 ?v_10) ?v_20)) (or (or ?v_84 ?v_90) ?v_51)) (or (or ?v_0 ?v_85) ?v_91)) (or (or ?v_197 ?v_92) ?v_72)) (or (or ?v_135 P24) ?v_39)) (or (or ?v_214 P15) ?v_183)) (or (or ?v_128 P26) P23)) (or (or ?v_66 ?v_36) ?v_94)) (or (or ?v_6 ?v_149) ?v_95)) (or (or P23 ?v_64) ?v_237)) (or (or ?v_97 ?v_98) P28)) (or ?v_251 ?v_15)) (or (or ?v_100 ?v_138) ?v_101)) (or (or ?v_86 ?v_102) ?v_103)) (or (or ?v_45 ?v_104) ?v_105)) (or (or ?v_106 P8) ?v_107)) (or (or ?v_108 ?v_109) P21)) (or (or ?v_110 ?v_10) ?v_111)) (or (or ?v_18 ?v_55) ?v_112)) (or (or ?v_86 ?v_58) ?v_2)) (or (or ?v_113 ?v_101) ?v_142)) (or (or ?v_33 ?v_114) ?v_243)) (or (or ?v_71 P20) ?v_115)) (or (or ?v_116 ?v_117) ?v_118)) (or (or ?v_127 ?v_6) ?v_94)) (or (or P5 ?v_72) ?v_119)) (or (or ?v_98 ?v_153) ?v_124)) (or (or ?v_121 ?v_83) ?v_159)) (or (or ?v_52 P17) ?v_122)) (or (or P6 ?v_94) ?v_123)) (or (or ?v_49 ?v_3) (not P0))) (or (or ?v_124 ?v_62) ?v_204)) (or (or ?v_53 ?v_29) ?v_143)) (or (or ?v_124 ?v_58) ?v_156)) (or (or ?v_60 ?v_38) ?v_51)) (or (or ?v_200 ?v_127) ?v_73)) (or (or ?v_28 ?v_206) P47)) (or (or ?v_23 ?v_128) ?v_146)) (or (or ?v_97 ?v_44) ?v_130)) (or (or ?v_72 ?v_105) ?v_227)) (or (or P25 P45) P16)) (or (or ?v_167 ?v_66) P22)) (or (or ?v_133 ?v_38) ?v_46)) (or (or ?v_134 ?v_110) ?v_109)) (or (or ?v_135 ?v_13) ?v_139)) (or (or ?v_3 ?v_136) ?v_222)) (or (or ?v_135 P14) P44)) (or (or ?v_137 ?v_87) ?v_138)) (or (or ?v_90 ?v_177) ?v_33)) (or (or ?v_70 ?v_205) ?v_23)) (or (or ?v_104 P5) P43)) (or (or ?v_152 ?v_140) ?v_134)) (or (or ?v_141 P14) ?v_124)) (or (or ?v_201 ?v_81) ?v_178)) (or (or ?v_147 ?v_148) ?v_142)) (or (or P31 ?v_30) ?v_42)) (or (or P7 ?v_173) ?v_124)) (or (or ?v_67 ?v_143) ?v_61)) (or (or ?v_128 ?v_124) ?v_144)) (or (or ?v_20 ?v_16) ?v_158)) (or (or ?v_145 ?v_18) ?v_146)) (or (or ?v_171 P21) ?v_147)) (or (or ?v_148 ?v_149) ?v_15)) (or (or ?v_94 ?v_55) ?v_77)) (or (or ?v_150 ?v_151) ?v_152)) (or (or P29 ?v_12) ?v_109)) (or (or ?v_33 ?v_55) ?v_190)) (or (or P18 ?v_55) ?v_17)) (or (or ?v_154 ?v_244) P23)) (or (or ?v_155 ?v_122) ?v_209)) (or (or P19 P17) ?v_203)) (or (or ?v_156 ?v_117) P28)) (or (or ?v_109 ?v_213) ?v_250)) (or (or ?v_157 ?v_21) ?v_158)) (or (or ?v_58 ?v_159) ?v_160)) (or (or ?v_161 ?v_57) ?v_86)) (or (or ?v_153 ?v_162) ?v_163)) (or (or ?v_160 P35) ?v_70)) (or (or ?v_17 ?v_164) ?v_74)) (or (or ?v_165 ?v_161) ?v_89)) (or (or ?v_15 ?v_99) ?v_166)) (or (or ?v_229 ?v_68) ?v_168)) (or (or P36 ?v_104) ?v_169)) (or (or ?v_110 ?v_54) ?v_105)) (or (or ?v_98 ?v_69) ?v_225)) (or (or ?v_171 ?v_172) ?v_173)) (or (or ?v_90 ?v_52) ?v_50)) (or (or P1 ?v_87) ?v_29)) (or (or ?v_37 P43) P33)) (or (or ?v_84 ?v_174) ?v_54)) (or (or ?v_175 ?v_176) ?v_74)) (or (or ?v_224 ?v_177) ?v_106)) (or (or ?v_117 ?v_173) ?v_138)) (or (or ?v_29 ?v_178) ?v_39)) (or (or ?v_179 P5) ?v_241)) (or ?v_207 ?v_118)) (or (or ?v_181 P31) P6)) (or (or ?v_182 P4) ?v_53)) (or (or ?v_108 ?v_65) ?v_97)) (or (or ?v_168 ?v_142) ?v_81)) (or (or ?v_14 ?v_14) P46)) (or (or ?v_217 ?v_26) ?v_141)) (or (or P43 ?v_33) ?v_22)) (or (or ?v_81 ?v_218) ?v_7)) (or (or ?v_183 ?v_184) P9)) (or (or ?v_106 ?v_162) ?v_150)) (or (or ?v_86 ?v_2) ?v_184)) (or (or P29 ?v_185) ?v_186)) (or (or ?v_171 ?v_165) ?v_187)) (or (or ?v_188 ?v_74) ?v_87)) (or (or P20 ?v_20) ?v_73)) (or (or P13 ?v_189) P19)) (or (or ?v_190 ?v_8) ?v_191)) (or (or P4 ?v_76) ?v_44)) (or (or ?v_134 ?v_192) ?v_187)) (or (or ?v_78 ?v_144) ?v_176)) (or (or ?v_193 ?v_194) ?v_179)) (or (or ?v_144 ?v_37) ?v_35)) (or ?v_198 ?v_175)) (or (or P4 ?v_195) ?v_180)) (or (or ?v_125 ?v_196) P11)) (or (or ?v_70 ?v_101) ?v_235)) (or (or ?v_169 ?v_130) ?v_197)) (or ?v_198 ?v_199)) (or (or P42 ?v_61) ?v_163)) (or (or ?v_202 ?v_201) ?v_57)) (or (or ?v_151 ?v_100) ?v_147)) (or (or ?v_29 P9) ?v_35)) (or (or ?v_202 ?v_127) ?v_149)) (or (or ?v_203 ?v_26) ?v_75)) (or (or ?v_183 ?v_74) P20)) (or (or ?v_135 ?v_103) ?v_177)) (or (or ?v_102 ?v_85) ?v_2)) (or (or ?v_147 ?v_61) ?v_145)) (or (or ?v_239 ?v_145) P23)) (or (or ?v_55 ?v_60) ?v_90)) (or (or ?v_0 ?v_72) ?v_172)) (or (or ?v_204 ?v_205) ?v_6)) (or (or ?v_185 ?v_141) ?v_206)) (or ?v_207 ?v_42)) (or (or ?v_153 P12) ?v_208)) (or (or ?v_16 ?v_138) P48)) (or (or ?v_182 ?v_82) ?v_125)) (or (or ?v_111 ?v_17) ?v_38)) (or (or ?v_89 ?v_60) ?v_185)) (or (or ?v_203 P29) P39)) (or (or P33 ?v_209) ?v_194)) (or (or P37 ?v_210) ?v_32)) (or (or ?v_249 ?v_93) ?v_117)) (or (or ?v_131 ?v_230) ?v_212)) (or (or ?v_23 ?v_55) ?v_41)) (or (or ?v_213 ?v_26) ?v_124)) (or (or ?v_42 ?v_214) P16)) (or (or ?v_41 ?v_21) ?v_145)) (or (or P10 ?v_105) ?v_164)) (or (or ?v_215 ?v_167) ?v_1)) (or (or ?v_10 ?v_216) ?v_38)) (or (or ?v_138 ?v_180) ?v_1)) (or (or P43 ?v_121) ?v_71)) (or (or ?v_42 ?v_54) ?v_217)) (or (or P24 ?v_72) ?v_218)) (or (or ?v_104 ?v_209) ?v_82)) (or (or ?v_189 ?v_15) ?v_73)) (or (or ?v_68 ?v_219) ?v_175)) (or (or P15 ?v_11) ?v_60)) (or (or ?v_25 P20) ?v_35)) (or (or ?v_70 ?v_140) ?v_186)) (or (or ?v_121 ?v_90) ?v_158)) (or (or ?v_257 P10) P12)) (or (or ?v_124 ?v_183) ?v_166)) (or (or ?v_187 ?v_63) ?v_142)) (or (or ?v_148 ?v_183) ?v_161)) (or (or ?v_76 ?v_139) ?v_10)) (or (or P42 ?v_206) ?v_160)) (or (or ?v_181 P39) ?v_216)) (or (or ?v_124 ?v_28) ?v_205)) (or (or ?v_100 ?v_60) ?v_219)) (or (or P47 ?v_212) ?v_70)) (or (or ?v_232 ?v_63) ?v_220)) (or (or P27 ?v_182) ?v_190)) (or (or ?v_157 P15) ?v_28)) (or (or P14 ?v_245) ?v_62)) (or (or ?v_201 P3) ?v_170)) (or (or P32 ?v_24) ?v_211)) (or ?v_247 ?v_174)) (or (or ?v_89 ?v_32) P49)) (or (or ?v_221 ?v_14) ?v_222)) (or (or ?v_106 ?v_165) ?v_13)) (or (or ?v_38 ?v_223) ?v_194)) (or (or P34 ?v_31) P23)) (or (or ?v_87 ?v_234) ?v_96)) (or (or ?v_81 ?v_87) ?v_164)) (or (or ?v_195 P31) ?v_112)) (or (or ?v_11 ?v_75) ?v_94)) (or (or ?v_85 P31) P23)) (or (or ?v_158 ?v_25) ?v_77)) (or (or ?v_224 ?v_68) ?v_142)) (or (or ?v_70 ?v_220) ?v_225)) (or (or ?v_73 ?v_224) ?v_146)) (or (or ?v_203 ?v_226) ?v_17)) (or (or ?v_30 ?v_127) ?v_17)) (or (or ?v_162 ?v_171) ?v_220)) (or (or P16 ?v_157) P42)) (or (or ?v_227 ?v_81) ?v_117)) (or (or ?v_124 ?v_184) ?v_97)) (or (or ?v_11 ?v_97) ?v_108)) (or (or ?v_108 ?v_166) P16)) (or (or P17 ?v_238) ?v_183)) (or (or ?v_228 ?v_242) ?v_77)) (or (or ?v_173 ?v_229) ?v_113)) (or (or ?v_221 ?v_165) ?v_215)) (or (or P36 ?v_42) ?v_126)) (or (or P42 ?v_230) ?v_7)) (or (or P41 P10) P5)) (or (or P41 ?v_21) ?v_150)) (or (or P12 (not ?v_231)) ?v_199)) (or (or ?v_178 ?v_96) ?v_84)) (or (or ?v_101 P40) ?v_141)) (or (or P40 ?v_124) ?v_213)) (or (or ?v_77 ?v_70) ?v_203)) (or (or ?v_231 ?v_87) ?v_188)) (or (or P3 ?v_232) ?v_158)) (or (or ?v_220 ?v_189) ?v_148)) (or (or ?v_95 P36) P17)) (or (or ?v_125 ?v_32) ?v_197)) (or (or P13 ?v_86) ?v_11)) (or (or ?v_15 ?v_142) ?v_134)) (or (or ?v_72 ?v_163) ?v_180)) (or (or ?v_179 P7) ?v_45)) (or (or ?v_18 ?v_167) ?v_150)) (or (or ?v_179 ?v_72) ?v_124)) (or (or ?v_186 ?v_1) ?v_233)) (or (or ?v_23 ?v_21) P14)) (or (or ?v_99 P23) ?v_197)) (or (or ?v_186 ?v_71) ?v_234)) (or (or ?v_107 ?v_192) ?v_73)) (or (or (not ?v_60) P21) ?v_41)) (or (or ?v_99 ?v_137) ?v_18)) (or (or ?v_22 ?v_136) ?v_234)) (or (or ?v_44 ?v_211) ?v_221)) (or (or ?v_115 ?v_175) ?v_112)) (or (or ?v_235 ?v_216) ?v_222)) (or (or ?v_67 ?v_76) P49)) (or (or P36 ?v_192) ?v_80)) (or (or P42 ?v_225) ?v_61)) (or (or ?v_147 ?v_114) P25)) (or (or ?v_175 ?v_62) P11)) (or (or ?v_169 ?v_214) ?v_95)) (or (or P9 P17) ?v_106)) (or (or P47 ?v_236) ?v_221)) (or (or ?v_22 P20) ?v_109)) (or (or ?v_157 ?v_237) ?v_186)) (or (or ?v_82 ?v_8) ?v_51)) (or (or ?v_13 ?v_77) ?v_238)) (or (or ?v_31 ?v_63) ?v_98)) (or (or ?v_22 ?v_178) ?v_2)) (or (or P32 ?v_144) ?v_134)) (or (or P39 ?v_184) ?v_185)) (or (or ?v_66 ?v_60) ?v_160)) (or (or ?v_218 ?v_78) ?v_177)) (or (or ?v_234 ?v_160) P36)) (or (or ?v_238 ?v_217) ?v_233)) (or (or P6 P14) P31)) (or (or ?v_99 P5) ?v_187)) (or (or ?v_133 ?v_236) ?v_22)) (or (or ?v_168 ?v_195) ?v_54)) (or (or ?v_116 ?v_192) ?v_208)) (or (or ?v_17 ?v_227) ?v_40)) (or (or ?v_16 ?v_228) ?v_162)) (or (or ?v_82 ?v_186) ?v_239)) (or (or ?v_104 ?v_240) P12)) (or (or ?v_227 P48) ?v_173)) (or (or ?v_90 ?v_230) ?v_129)) (or (or ?v_209 ?v_171) ?v_241)) (or (or ?v_21 ?v_32) ?v_212)) (or (or ?v_209 ?v_130) ?v_54)) (or (or ?v_90 ?v_77) ?v_242)) (or (or ?v_243 P34) P1)) (or (or ?v_11 ?v_197) ?v_114)) (or (or ?v_111 ?v_42) P20)) (or (or ?v_244 ?v_61) ?v_136)) (or (or ?v_31 ?v_181) ?v_169)) (or ?v_256 ?v_179)) (or (or ?v_125 ?v_159) ?v_137)) (or (or ?v_3 ?v_221) ?v_57)) (or (or ?v_62 P44) ?v_139)) (or (or ?v_113 ?v_204) ?v_182)) (or (or P37 ?v_187) ?v_105)) (or (or ?v_240 P43) ?v_165)) (or (or ?v_134 ?v_119) P39)) (or (or P6 ?v_110) P42)) (or (or P49 ?v_10) ?v_75)) (or (or ?v_162 ?v_186) ?v_92)) (or (or ?v_2 ?v_17) ?v_3)) (or (or ?v_214 ?v_148) ?v_108)) (or (or ?v_211 ?v_38) P13)) (or (or ?v_223 ?v_188) ?v_39)) (or (or ?v_68 ?v_245) ?v_215)) (or (or ?v_67 ?v_211) ?v_29)) (or (or ?v_2 ?v_20) ?v_237)) (or (or ?v_20 ?v_37) ?v_55)) (or (or ?v_42 ?v_30) ?v_93)) (or (or ?v_209 ?v_215) ?v_10)) (or (or ?v_44 ?v_163) ?v_19)) (or (or P8 ?v_226) ?v_191)) (or (or ?v_210 ?v_107) ?v_68)) (or (or ?v_143 ?v_39) ?v_141)) (or (or ?v_66 ?v_11) P18)) (or (or ?v_82 P5) ?v_246)) (or (or ?v_242 ?v_36) P49)) (or ?v_247 ?v_124)) (or (or ?v_81 ?v_184) P26)) (or (or ?v_111 ?v_77) ?v_159)) (or (or ?v_128 ?v_246) ?v_114)) (or (or ?v_159 ?v_38) ?v_161)) (or (or ?v_179 ?v_90) P23)) (or (or ?v_52 ?v_16) ?v_222)) (or (or ?v_190 P38) ?v_52)) (or (or ?v_137 ?v_13) ?v_185)) (or (or P33 ?v_68) ?v_197)) (or (or ?v_75 ?v_203) ?v_189)) (or (or P46 ?v_23) ?v_124)) (or (or ?v_45 ?v_193) ?v_143)) (or (or ?v_248 P8) ?v_102)) (or (or ?v_31 ?v_205) ?v_18)) (or (or ?v_113 ?v_217) ?v_55)) (or (or ?v_200 ?v_49) ?v_90)) (or (or ?v_10 ?v_191) P5)) (or (or P49 ?v_168) ?v_106)) (or (or P36 ?v_82) ?v_11)) (or (or ?v_101 P11) ?v_15)) (or (or ?v_159 ?v_186) ?v_116)) (or (or ?v_41 ?v_155) ?v_46)) (or (or ?v_96 P4) ?v_118)) (or (or P40 P2) ?v_175)) (or (or P34 ?v_169) ?v_18)) (or (or ?v_168 ?v_192) ?v_103)) (or (or P10 ?v_52) ?v_228)) (or (or P49 ?v_241) ?v_79)) (or (or P18 ?v_193) ?v_65)) (or (or ?v_206 ?v_78) ?v_72)) (or (or ?v_110 ?v_33) ?v_192)) (or (or ?v_57 P3) ?v_18)) (or (or ?v_146 P15) ?v_57)) (or (or ?v_99 ?v_75) ?v_178)) (or (or P39 ?v_129) ?v_117)) (or (or ?v_2 ?v_182) ?v_83)) (or (or P9 ?v_249) ?v_173)) (or (or ?v_235 ?v_100) ?v_12)) (or (or ?v_219 P45) P23)) (or (or ?v_211 ?v_90) ?v_219)) (or (or ?v_126 ?v_164) ?v_103)) (or (or ?v_23 ?v_63) ?v_129)) (or (or ?v_73 ?v_199) P38)) (or (or ?v_115 ?v_114) ?v_226)) (or (or ?v_146 ?v_121) ?v_203)) (or (or ?v_239 ?v_224) ?v_240)) (or (or ?v_30 ?v_240) ?v_223)) (or (or P39 ?v_121) ?v_250)) (or (or ?v_169 ?v_98) ?v_204)) (or (or P33 ?v_179) ?v_95)) (or (or ?v_177 P41) ?v_238)) (or (or ?v_237 ?v_232) ?v_27)) (or (or ?v_181 ?v_245) ?v_67)) (or (or ?v_250 ?v_89) ?v_161)) (or (or ?v_119 ?v_96) P48)) (or (or ?v_118 ?v_23) ?v_244)) (or (or ?v_177 ?v_20) ?v_37)) (or (or ?v_6 ?v_104) ?v_171)) (or (or ?v_131 ?v_96) ?v_135)) (or (or ?v_51 ?v_50) ?v_110)) (or (or P5 ?v_134) ?v_75)) (or (or ?v_27 P9) P10)) (or (or ?v_114 ?v_155) ?v_135)) (or (or ?v_58 ?v_36) ?v_25)) (or (or ?v_55 ?v_185) P20)) (or (or P49 ?v_40) ?v_15)) (or (or ?v_204 ?v_131) ?v_190)) (or (or ?v_62 ?v_76) ?v_8)) (or (or ?v_18 ?v_126) ?v_63)) (or (or ?v_222 ?v_224) ?v_231)) (or ?v_251 P16)) (or (or P31 ?v_123) P25)) (or (or ?v_94 ?v_74) ?v_151)) (or (or ?v_152 ?v_29) P40)) (or (or ?v_84 ?v_145) ?v_241)) (or (or ?v_161 ?v_30) ?v_95)) (or (or ?v_97 ?v_66) ?v_252)) (or (or P32 ?v_139) ?v_50)) (or (or P36 ?v_184) ?v_227)) (or (or ?v_123 ?v_145) P49)) (or (or ?v_28 ?v_246) ?v_151)) (or (or ?v_253 P44) ?v_86)) (or (or ?v_26 ?v_205) ?v_216)) (or (or ?v_246 ?v_158) ?v_135)) (or (or ?v_12 ?v_234) ?v_163)) (or (or P48 ?v_226) ?v_195)) (or (or ?v_171 ?v_27) ?v_254)) (or (or P33 ?v_44) ?v_91)) (or (or ?v_70 P1) ?v_162)) (or (or ?v_91 P26) ?v_104)) (or (or ?v_84 ?v_51) ?v_225)) (or (or ?v_143 ?v_189) ?v_30)) (or (or ?v_2 ?v_14) ?v_13)) (or (or ?v_230 ?v_17) ?v_144)) (or (or ?v_51 ?v_131) ?v_158)) (or (or ?v_254 ?v_63) ?v_191)) (or (or P40 ?v_42) ?v_150)) (or (or ?v_47 ?v_91) ?v_87)) (or (or ?v_170 ?v_221) ?v_85)) (or (or ?v_113 P5) ?v_39)) (or (or ?v_210 ?v_121) ?v_41)) (or (or ?v_141 ?v_252) P26)) (or (or ?v_190 ?v_42) ?v_129)) (or (or ?v_94 ?v_58) ?v_179)) (or (or ?v_3 ?v_168) ?v_241)) (or (or P5 ?v_224) P3)) (or (or ?v_234 ?v_228) ?v_179)) (or (or ?v_100 ?v_255) P33)) (or ?v_256 ?v_192)) (or (or P33 ?v_208) ?v_209)) (or (or ?v_179 ?v_115) ?v_111)) (or (or ?v_130 ?v_188) ?v_70)) (or (or ?v_184 ?v_50) ?v_13)) (or (or ?v_218 P43) ?v_181)) (or (or ?v_37 ?v_111) P18)) (or (or P13 ?v_224) P35)) (or (or ?v_179 ?v_242) ?v_24)) (or (or ?v_35 ?v_188) ?v_107)) (or (or ?v_217 ?v_17) ?v_83)) (or (or ?v_60 ?v_44) P29)) (or (or ?v_236 ?v_109) ?v_218)) (or (or P9 ?v_155) ?v_90)) (or (or ?v_64 ?v_2) ?v_125)) (or (or ?v_107 ?v_154) ?v_206)) (or (or ?v_145 ?v_161) ?v_203)) (or (or ?v_99 ?v_257) ?v_261)) (or (or ?v_199 P20) ?v_47)) (or (or ?v_234 ?v_63) ?v_31)) (or ?v_258 ?v_114)) (or (or ?v_101 P31) ?v_93)) (or (or ?v_216 ?v_232) ?v_3)) (or (or ?v_237 ?v_117) ?v_146)) (or (or ?v_185 ?v_224) P11)) (or (or ?v_75 ?v_23) ?v_136)) (or (or ?v_246 P1) P20)) (or (or ?v_37 P45) ?v_24)) (or (or ?v_69 ?v_210) ?v_253)) (or (or ?v_114 ?v_22) P6)) (or (or ?v_18 ?v_177) ?v_53)) (or (or ?v_208 ?v_135) ?v_181)) (or (or ?v_248 ?v_172) ?v_84)) (or (or ?v_97 ?v_245) ?v_126)) (or (or ?v_161 ?v_259) ?v_233)) (or (or ?v_216 ?v_78) ?v_61)) (or (or ?v_2 ?v_137) P2)) (or (or ?v_47 ?v_128) ?v_191)) (or (or ?v_169 ?v_133) ?v_234)) (or (or ?v_80 P42) ?v_143)) (or (or P48 ?v_165) ?v_144)) (or (or ?v_10 ?v_140) ?v_28)) (or (or ?v_10 ?v_74) P1)) (or (or ?v_47 ?v_121) P38)) (or (or ?v_66 ?v_157) ?v_16)) (or (or ?v_93 ?v_218) P26)) (or (or ?v_19 P5) ?v_254)) (or (or ?v_216 ?v_254) ?v_166)) (or ?v_260 ?v_206)) (or (or ?v_47 P3) ?v_197)) (or (or ?v_216 ?v_146) ?v_76)) (or (or ?v_14 ?v_128) P27)) (or (or ?v_148 ?v_54) ?v_155)) (or (or ?v_36 ?v_13) ?v_53)) (or (or ?v_10 ?v_112) ?v_240)) (or (or ?v_221 ?v_85) ?v_255)) (or (or ?v_93 ?v_16) ?v_161)) (or (or ?v_155 ?v_244) ?v_212)) (or (or P49 ?v_145) ?v_225)) (or (or ?v_53 ?v_167) ?v_140)) (or (or ?v_233 P13) P7)) (or (or ?v_165 ?v_122) ?v_240)) (or (or ?v_118 ?v_100) ?v_26)) (or (or ?v_158 ?v_64) ?v_91)) (or (or ?v_99 ?v_171) P9)) (or (or ?v_237 ?v_1) ?v_32)) (or (or ?v_168 ?v_101) P16)) (or (or ?v_201 ?v_129) ?v_175)) (or (or P14 P40) ?v_122)) (or (or ?v_110 ?v_109) ?v_261)) (or (or ?v_1 ?v_133) P43)) (or (or P28 ?v_37) ?v_143)) (or (or ?v_155 P29) ?v_128)) (or (or ?v_154 ?v_22) ?v_131)) (or (or P15 ?v_254) ?v_37)) (or (or ?v_249 ?v_187) ?v_154)) (or (or ?v_2 ?v_244) ?v_14)) (or (or ?v_236 P14) ?v_117)) (or (or ?v_67 ?v_115) ?v_170))))))))))))))))))))))))))))))))))))
(check-sat)
(exit)
